JulietBench/Juliet_Based_Patch_Bench/qemu/CWE-190-Integer-Overflow-or-Wraparound/CVE_2014_0143_e3737b820b45e54b059656dc3f914f895ac7a88b/cve1/solverbochs_open_Snippet_patch2.smt2
; benchmark generated from python API
(set-info :status unknown)
(declare-fun R () (_ BitVec 32))
(declare-fun rdi () (_ BitVec 64))
(assert
 (let (($x36 (and (distinct (_ bv4194304 32) R) true)))
 (let ((?x29 ((_ extract 29 0) rdi)))
 (let ((?x16 (concat ?x29 (_ bv0 2))))
 (let (($x37 (and (distinct R ?x16) true)))
 (let (($x35 (and $x37 $x36)))
 (let (($x14 (= (_ bv4194304 32) R)))
 (let (($x31 (= R ?x16)))
 (let (($x38 (and $x31 $x14)))
 (let (($x34 (or $x38 $x35)))
 (not $x34)))))))))))
(check-sat)
